Rodando pra 1h

Optimize a model with 490129 rows, 734060 columns and 26882239 nonzeros
Coefficient statistics:
  Matrix range    [1e+00, 1e+04]
  Objective range [5e-01, 5e-01]
  Bounds range    [1e+00, 1e+04]
  RHS range       [1e+00, 1e+04]
Presolve removed 0 rows and 0 columns (presolve time = 11s) ...
Presolve removed 2 rows and 2 columns (presolve time = 17s) ...
Presolve removed 3 rows and 3 columns (presolve time = 21s) ...
Presolve removed 4 rows and 4 columns (presolve time = 39s) ...
Presolve removed 8 rows and 8 columns (presolve time = 49s) ...
Presolve removed 8 rows and 8 columns (presolve time = 50s) ...
Presolve removed 8 rows and 8 columns (presolve time = 62s) ...
Presolve removed 8 rows and 8 columns (presolve time = 66s) ...
Presolve removed 8 rows and 8 columns (presolve time = 72s) ...
Presolve removed 8 rows and 8 columns (presolve time = 78s) ...
Presolve removed 8 rows and 8 columns (presolve time = 83s) ...
Presolve removed 8 rows and 8 columns (presolve time = 88s) ...
Presolve removed 8 rows and 8 columns (presolve time = 94s) ...
Presolve removed 8 rows and 8 columns (presolve time = 99s) ...
Presolve removed 8 rows and 8 columns (presolve time = 103s) ...
Presolve removed 8 rows and 8 columns (presolve time = 108s) ...
Presolve removed 8 rows and 8 columns (presolve time = 113s) ...
Presolve removed 8 rows and 8 columns (presolve time = 118s) ...
Presolve removed 8 rows and 8 columns (presolve time = 122s) ...
Presolve removed 8 rows and 8 columns (presolve time = 126s) ...
Presolve removed 8 rows and 8 columns (presolve time = 134s) ...
Presolve removed 8 rows and 8 columns (presolve time = 138s) ...
Presolve removed 8 rows and 8 columns (presolve time = 141s) ...
Presolve removed 8 rows and 8 columns (presolve time = 145s) ...
Presolve removed 8 rows and 8 columns (presolve time = 153s) ...
Presolve removed 8 rows and 8 columns (presolve time = 157s) ...
Presolve removed 8 rows and 8 columns (presolve time = 161s) ...
Presolve removed 8 rows and 8 columns (presolve time = 169s) ...
Presolve removed 8 rows and 8 columns (presolve time = 173s) ...
Presolve removed 8 rows and 8 columns (presolve time = 176s) ...
Presolve removed 8 rows and 8 columns (presolve time = 180s) ...
Presolve removed 8 rows and 8 columns (presolve time = 188s) ...
Presolve removed 8 rows and 8 columns (presolve time = 191s) ...
Presolve removed 8 rows and 8 columns (presolve time = 195s) ...
Presolve removed 8 rows and 8 columns (presolve time = 203s) ...
Presolve removed 8 rows and 8 columns (presolve time = 207s) ...
Presolve removed 8 rows and 8 columns (presolve time = 211s) ...
Presolve removed 8 rows and 8 columns (presolve time = 219s) ...
Presolve removed 8 rows and 8 columns (presolve time = 222s) ...
Presolve removed 8 rows and 8 columns (presolve time = 226s) ...
Presolve removed 8 rows and 8 columns (presolve time = 234s) ...
Presolve removed 8 rows and 8 columns (presolve time = 238s) ...
Presolve removed 8 rows and 8 columns (presolve time = 254s) ...
Presolve removed 8 rows and 8 columns (presolve time = 260s) ...
Presolve removed 8 rows and 8 columns (presolve time = 291s) ...
Presolve removed 8 rows and 8 columns
Presolve time: 290.67s
Presolved: 490121 rows, 734052 columns, 26882183 nonzeros
Variable types: 489300 continuous, 244752 integer (244750 binary)
Optimize a model with 490121 rows, 734052 columns and 26882183 nonzeros
Coefficient statistics:
  Matrix range    [1e+00, 1e+04]
  Objective range [5e-01, 5e-01]
  Bounds range    [1e+00, 1e+04]
  RHS range       [1e+00, 2e+04]
Presolve removed 0 rows and 0 columns (presolve time = 6s) ...
Presolve removed 0 rows and 0 columns (presolve time = 14s) ...
Presolve removed 0 rows and 0 columns (presolve time = 17s) ...
Presolve removed 0 rows and 0 columns (presolve time = 24s) ...
Presolved: 490121 rows, 734052 columns, 26882183 nonzeros


Root simplex log...

Iteration    Objective       Primal Inf.    Dual Inf.      Time
       0    0.0000000e+00   2.114683e+03   0.000000e+00    359s
    1500    0.0000000e+00   0.000000e+00   0.000000e+00    361s

Root relaxation: objective 0.000000e+00, 1500 iterations, 27.75 seconds

    Nodes    |    Current Node    |     Objective Bounds      |     Work
 Expl Unexpl |  Obj  Depth IntInf | Incumbent    BestBd   Gap | It/Node Time

     0     0    0.00000    0  720          -    0.00000      -     - 3601s

Explored 0 nodes (180077 simplex iterations) in 3601.45 seconds
Thread count was 1 (of 4 available processors)

Time limit reached
Best objective -, best bound 0.000000000000e+00, gap -
Tempo: 3550.76 segundos

Error code = 10004
Var::get
